SPARKNaCl/why3-z3/sparknacl-sign.adb_913_43_range_check3_1.smt2
;; produced by z3_gnatprove.drv ;;
(set-info :smt-lib-version 2.5)
(set-info :source |VC generated by SPARK 2014|)
(set-info :category industrial)
(set-info :status unknown)
;;; generated by SMT-LIB2 driver
;;; SMT-LIB2 driver: bit-vectors, common part
;;; SMT-LIB2: integer arithmetic
;; "length"
(define-fun length ((x Int) (y Int)) Int
  (ite (<= x y) (+ (- y x) 1) 0))

(declare-sort tinteger_32B 0)

;; "tinteger_32B'int"
(declare-fun tinteger_32Bqtint (tinteger_32B) Int)

;; "tinteger_32B'axiom"
(assert
  (forall ((i tinteger_32B))
    (and
      (<= (- 2147483648) (tinteger_32Bqtint i))
      (<= (tinteger_32Bqtint i) 2147483647))))

;; "in_range"
(define-fun in_range ((x Int)) Bool
  (and (<= (- 2147483648) x) (<= x 2147483647)))

;; "to_rep"
(define-fun to_rep ((x tinteger_32B)) Int
  (tinteger_32Bqtint x))

;; "of_rep"
(declare-fun of_rep (Int) tinteger_32B)

;; "inversion_axiom"
(assert
  (forall ((x tinteger_32B))
    (! (= (of_rep (to_rep x)) x) :pattern ((to_rep x)) )))

;; "range_axiom"
(assert
  (forall ((x tinteger_32B))
    (! (in_range (to_rep x)) :pattern ((to_rep x)) )))

;; "coerce_axiom"
(assert
  (forall ((x Int))
    (! (=> (in_range x) (= (to_rep (of_rep x)) x)) :pattern ((to_rep
                                                               (of_rep x))) )))

;; "in_range"
(define-fun in_range1 ((x Int)) Bool
  (and (<= 0 x) (<= x 2147483647)))

(declare-sort byte 0)

;; "to_rep"
(declare-fun to_rep1 (byte) (_ BitVec 8))

;; "of_rep"
(declare-fun of_rep1 ((_ BitVec 8)) byte)

;; "inversion_axiom"
(assert
  (forall ((x byte)) (! (= (of_rep1 (to_rep1 x)) x) :pattern ((to_rep1 x)) )))

;; "range_axiom"
(assert true)

;; "coerce_axiom"
(assert
  (forall ((x (_ BitVec 8)))
    (! (= (to_rep1 (of_rep1 x)) x) :pattern ((to_rep1 (of_rep1 x))) )))

(declare-sort map1 0)

(declare-datatypes ()
  ((map__ref (map__refqtmk (map__content map1)))))

;; "has_bounds"
(declare-fun has_bounds (map1
  Int
  Int) Bool)

;; "get"
(declare-fun get (map1
  Int) byte)

;; "slide"
(declare-fun slide (map1
  Int
  Int) map1)

;; "slide_eq"
(assert
  (forall ((a map1) (first Int))
    (! (= (slide a first first) a) :pattern ((slide a first first)) )))

;; "slide_def"
(assert
  (forall ((a map1) (old_first Int) (new_first Int))
    (! (and
         (forall ((i Int))
           (! (= (get (slide a old_first new_first) i) (get
                                                         a
                                                         (- i (- new_first old_first)))) :pattern (
           (get
             (slide a old_first new_first)
             i)) ))
         (forall ((new_last Int))
           (! (=>
                (has_bounds a old_first (- new_last (- new_first old_first)))
                (has_bounds (slide a old_first new_first) new_first new_last)) :pattern (
           (has_bounds
             (slide a old_first new_first)
             new_first
             new_last)) ))) :pattern ((slide a old_first new_first)) )))

;; "slice"
(declare-fun slice (map1
  Int
  Int) map1)

;; "slice_eq"
(assert
  (forall ((a map1) (f Int) (l Int))
    (! (=> (has_bounds a f l) (= (slice a f l) a)) :pattern ((slice a f l)
    (has_bounds a f l)) )))

;; "slice_slice"
(assert
  (forall ((a map1) (f1 Int) (l1 Int) (f2 Int) (l2 Int))
    (! (=>
         (and (<= f1 f2) (<= l2 l1))
         (= (slice (slice a f1 l1) f2 l2) (slice a f2 l2))) :pattern (
    (slice
      (slice a f1 l1)
      f2
      l2)) )))

;; "slice_def"
(assert
  (forall ((a map1) (f Int) (l Int))
    (! (forall ((i Int))
         (! (=> (and (<= f i) (<= i l)) (= (get (slice a f l) i) (get a i))) :pattern (
         (get
           (slice a f l)
           i)) :pattern ((get a i)) )) :pattern ((slice a f l)) )))

;; "slice_has_bounds"
(assert
  (forall ((a map1) (f Int) (l Int))
    (! (has_bounds (slice a f l) f l) :pattern ((has_bounds
                                                  (slice a f l)
                                                  f
                                                  l)) )))

(declare-datatypes ()
  ((t (tqtmk (rec__first tinteger_32B)(rec__last tinteger_32B)))))

;; "dynamic_property"
(define-fun dynamic_property ((range_first Int) (range_last Int) (low Int) (high Int)) Bool
  (and
    (in_range low)
    (and
      (in_range high)
      (=> (<= low high) (and (in_range1 low) (in_range1 high))))))

(declare-datatypes ()
  ((us_t (us_tqtmk (elts map1)(rt t)))))

;; "to_array"
(define-fun to_array ((a us_t)) map1
  (elts a))

;; "first"
(define-fun first ((a us_t)) Int
  (to_rep (rec__first (rt a))))

;; "last"
(define-fun last ((a us_t)) Int
  (to_rep (rec__last (rt a))))

;; "length"
(define-fun length1 ((a us_t)) Int
  (ite (<= (first a) (last a)) (+ (- (last a) (first a)) 1) 0))

;; "well_formed"
(define-fun well_formed ((a us_t)) Bool
  (has_bounds
    (elts a)
    (to_rep (rec__first (rt a)))
    (to_rep (rec__last (rt a)))))

(declare-const m us_t)

(declare-datatypes ()
  ((byte__init_wrapper
   (byte__init_wrapperqtmk (rec__value byte)(us_attr__init Bool)))))

(declare-sort map2 0)

(declare-datatypes ()
  ((map__ref1 (map__refqtmk1 (map__content1 map2)))))

;; "has_bounds"
(declare-fun has_bounds1 (map2
  Int
  Int) Bool)

;; "get"
(declare-fun get1 (map2
  Int) byte__init_wrapper)

;; "slice"
(declare-fun slice1 (map2
  Int
  Int) map2)

;; "slice_eq"
(assert
  (forall ((a map2) (f Int) (l Int))
    (! (=> (has_bounds1 a f l) (= (slice1 a f l) a)) :pattern ((slice1 a f l)
    (has_bounds1 a f l)) )))

;; "slice_slice"
(assert
  (forall ((a map2) (f1 Int) (l1 Int) (f2 Int) (l2 Int))
    (! (=>
         (and (<= f1 f2) (<= l2 l1))
         (= (slice1 (slice1 a f1 l1) f2 l2) (slice1 a f2 l2))) :pattern (
    (slice1
      (slice1 a f1 l1)
      f2
      l2)) )))

;; "slice_def"
(assert
  (forall ((a map2) (f Int) (l Int))
    (! (forall ((i Int))
         (! (=>
              (and (<= f i) (<= i l))
              (= (get1 (slice1 a f l) i) (get1 a i))) :pattern ((get1
                                                                  (slice1
                                                                    a
                                                                    f
                                                                    l)
                                                                  i)) :pattern (
         (get1
           a
           i)) )) :pattern ((slice1 a f l)) )))

;; "slice_has_bounds"
(assert
  (forall ((a map2) (f Int) (l Int))
    (! (has_bounds1 (slice1 a f l) f l) :pattern ((has_bounds1
                                                    (slice1 a f l)
                                                    f
                                                    l)) )))

(declare-const x__first tinteger_32B)

(declare-const x__last tinteger_32B)

(declare-const zero_bytes_32 map1)

;; "convert"
(declare-fun convert (map1) map2)

;; "convert__def"
(assert
  (forall ((a map1))
    (let ((b (convert a)))
      (forall ((temp___170 Int))
        (and
          (= (us_attr__init
               (byte__init_wrapperqtmk
                 (of_rep1 (to_rep1 (get a temp___170)))
                 true)) (us_attr__init (get1 b temp___170)))
          (= (to_rep1
               (rec__value
                 (byte__init_wrapperqtmk
                   (of_rep1 (to_rep1 (get a temp___170)))
                   true))) (to_rep1 (rec__value (get1 b temp___170)))))))))

(declare-datatypes ()
  ((t1 (tqtmk1 (rec__first1 tinteger_32B)(rec__last1 tinteger_32B)))))

;; "mk"
(declare-fun mk (Int
  Int) t1)

;; "mk_def"
(assert
  (forall ((f Int) (l Int))
    (! (=>
         (in_range f)
         (=>
           (in_range l)
           (and
             (= (to_rep (rec__first1 (mk f l))) f)
             (= (to_rep (rec__last1 (mk f l))) l)))) :pattern ((mk f l)) )))

(declare-datatypes ()
  ((us_t1 (us_tqtmk1 (elts1 map2)(rt1 t1)))))

;; "to_array"
(define-fun to_array1 ((a us_t1)) map2
  (elts1 a))

;; "of_array"
(define-fun of_array ((a map2) (f Int) (l Int)) us_t1
  (us_tqtmk1 a (mk f l)))

;; "first"
(define-fun first1 ((a us_t1)) Int
  (to_rep (rec__first1 (rt1 a))))

;; "last"
(define-fun last1 ((a us_t1)) Int
  (to_rep (rec__last1 (rt1 a))))

;; "well_formed"
(define-fun well_formed1 ((a us_t1)) Bool
  (has_bounds1
    (elts1 a)
    (to_rep (rec__first1 (rt1 a)))
    (to_rep (rec__last1 (rt1 a)))))

;; "dynamic_invariant"
(define-fun dynamic_invariant ((temp___expr_486 us_t) (temp___is_init_482 Bool) (temp___skip_constant_483 Bool) (temp___do_toplevel_484 Bool) (temp___do_typ_inv_485 Bool)) Bool
  (and
    (=>
      (not (= temp___skip_constant_483 true))
      (dynamic_property
        0
        2147483647
        (first temp___expr_486)
        (last temp___expr_486)))
    (well_formed temp___expr_486)))

;; "__is_initialized"
(define-fun us_is_initialized ((temp___expr_495 us_t1)) Bool
  (forall ((temp___496 Int))
    (=>
      (and
        (<= (first1 temp___expr_495) temp___496)
        (<= temp___496 (last1 temp___expr_495)))
      (= (us_attr__init (get1 (to_array1 temp___expr_495) temp___496)) true))))

;; "sparknacl__zero_bytes_32__aggregate_def"
(declare-fun sparknacl__zero_bytes_32__aggregate_def ((_ BitVec 8)) map1)

;; "zero_bytes_32__def_axiom"
(assert
  (= zero_bytes_32 (let ((temp___435 (sparknacl__zero_bytes_32__aggregate_def
                                       #x00)))
                     (let ((temp___436 temp___435)) temp___436))))

;; "def_axiom"
(assert
  (forall ((temp___431 (_ BitVec 8)))
    (let ((temp___432 (sparknacl__zero_bytes_32__aggregate_def temp___431)))
      (and
        (has_bounds temp___432 0 31)
        (forall ((temp___433 Int))
          (! (=>
               (and (<= 0 temp___433) (<= temp___433 31))
               (= (to_rep1 (get temp___432 temp___433)) temp___431)) :pattern (
          (get
            temp___432
            temp___433)) ))))))

(declare-const d map1)

(declare-const x map2)

;; "x'unused"
(define-fun xqtunused () map__ref1
  (map__refqtmk1 x))

;; "d'unused"
(define-fun dqtunused () map__ref
  (map__refqtmk d))

;; "Assume"
(assert (dynamic_invariant m true false true true))

;; "Assume"
(assert (has_bounds zero_bytes_32 0 31))

(declare-const temp___2839 map1)

;; "H"
(assert (has_bounds temp___2839 0 31))

;; "H"
(assert
  (forall ((temp___434 Int))
    (! (=>
         (and (<= 0 temp___434) (<= temp___434 31))
         (= (to_rep1 (get temp___2839 temp___434)) #x00)) :pattern ((get
                                                                    temp___2839
                                                                    temp___434)) )))

;; "H"
(assert (= temp___2839 (sparknacl__zero_bytes_32__aggregate_def #x00)))

;; "sparknacl__zero_bytes_32__aggregate_def'result'unused"
(define-fun sparknacl__zero_bytes_32__aggregate_defqtresultqtunused () map1
  temp___2839)

;; "Assume"
(assert (= temp___2839 zero_bytes_32))

;; "Assume"
(assert (has_bounds d 0 63))

;; "Assume"
(assert
  (and
    (dynamic_property 0 2147483647 (to_rep x__first) (to_rep x__last))
    (well_formed1 (of_array x (to_rep x__first) (to_rep x__last)))))

;; "Assume"
(assert (dynamic_invariant m true false true true))

;; "Assume"
(assert
  (and
    (and
      (and (= (first m) 0) (= (to_rep x__first) 0))
      (<= (last m) 2147483583))
    (and
      (= (length (to_rep x__first) (to_rep x__last)) (+ (length1 m) 64))
      (= (to_rep x__last) (+ (last m) 64)))))

(declare-const o Int)

;; "Ensures"
(assert (= (to_rep x__last) o))

;; "to_rep'result'unused"
(define-fun to_repqtresultqtunused () Int
  o)

(declare-const o1 Int)

;; "Ensures"
(assert (= (to_rep x__first) o1))

;; "to_rep'result'unused"
(define-fun to_repqtresultqtunused1 () Int
  o1)

;; "map__content'result'unused"
(define-fun map__contentqtresultqtunused () map2
  x)

;; "temp___2761"
(define-fun temp___2761 () us_t1
  (of_array x o1 o))

;; "of_array'result'unused"
(define-fun of_arrayqtresultqtunused () us_t1
  temp___2761)

;; "temp___2763"
(define-fun temp___2763 () map2
  (convert zero_bytes_32))

;; "convert'result'unused"
(define-fun convertqtresultqtunused () map2
  temp___2763)

(declare-const infix_lseqqtresultqtunused Bool)

;; "H"
(assert (= infix_lseqqtresultqtunused (ite (<= 0 31) true false)))

(declare-const usf us_t1)

;; "H"
(assert true)

;; "H"
(assert (= o1 (first1 usf)))

;; "H"
(assert (= o (last1 usf)))

;; "H"
(assert
  (forall ((temp___2764 Int))
    (ite (and (<= 0 temp___2764) (<= temp___2764 31))
      (= (get1 (to_array1 usf) temp___2764) (get1 temp___2763 temp___2764))
      (= (get1 (to_array1 usf) temp___2764) (get1 x temp___2764)))))

;; "any'result'unused"
(define-fun anyqtresultqtunused () us_t1
  usf)

;; "o"
(define-fun o2 () map2
  (to_array1 usf))

;; "to_array'result'unused"
(define-fun to_arrayqtresultqtunused () map2
  o2)

(declare-const x1 map2)

;; "x'unused"
(define-fun xqtunused1 () map__ref1
  (map__refqtmk1 x1))

;; "H"
(assert (= x1 o2))

(declare-const o3 Int)

;; "Ensures"
(assert (= (to_rep x__last) o3))

;; "to_rep'result'unused"
(define-fun to_repqtresultqtunused2 () Int
  o3)

(declare-const o4 Int)

;; "Ensures"
(assert (= (to_rep x__first) o4))

;; "to_rep'result'unused"
(define-fun to_repqtresultqtunused3 () Int
  o4)

;; "map__content'result'unused"
(define-fun map__contentqtresultqtunused1 () map2
  x1)

;; "temp___2774"
(define-fun temp___2774 () us_t1
  (of_array x1 o4 o3))

;; "of_array'result'unused"
(define-fun of_arrayqtresultqtunused1 () us_t1
  temp___2774)

;; "Assert"
(assert
  (=> (<= 32 63) (and (and (<= 0 32) (<= 32 63)) (and (<= 0 63) (<= 63 63)))))

;; "map__content'result'unused"
(define-fun map__contentqtresultqtunused2 () map1
  d)

;; "temp___2772"
(define-fun temp___2772 () map1
  (slice d 32 63))

;; "slice'result'unused"
(define-fun sliceqtresultqtunused () map1
  temp___2772)

;; "temp___2776"
(define-fun temp___2776 () map2
  (convert temp___2772))

;; "convert'result'unused"
(define-fun convertqtresultqtunused1 () map2
  temp___2776)

(declare-const infix_lseqqtresultqtunused1 Bool)

;; "H"
(assert (= infix_lseqqtresultqtunused1 (ite (<= 32 63) true false)))

(declare-const usf1 us_t1)

;; "H"
(assert true)

;; "H"
(assert (= o4 (first1 usf1)))

;; "H"
(assert (= o3 (last1 usf1)))

;; "H"
(assert
  (forall ((temp___2777 Int))
    (ite (and (<= 32 temp___2777) (<= temp___2777 63))
      (= (get1 (to_array1 usf1) temp___2777) (get1 temp___2776 temp___2777))
      (= (get1 (to_array1 usf1) temp___2777) (get1 x1 temp___2777)))))

;; "any'result'unused"
(define-fun anyqtresultqtunused1 () us_t1
  usf1)

;; "o"
(define-fun o5 () map2
  (to_array1 usf1))

;; "to_array'result'unused"
(define-fun to_arrayqtresultqtunused1 () map2
  o5)

(declare-const x2 map2)

;; "x'unused"
(define-fun xqtunused2 () map__ref1
  (map__refqtmk1 x2))

;; "H"
(assert (= x2 o5))

(declare-const o6 Int)

;; "Ensures"
(assert (= (to_rep x__last) o6))

;; "to_rep'result'unused"
(define-fun to_repqtresultqtunused4 () Int
  o6)

(declare-const o7 Int)

;; "Ensures"
(assert (= (to_rep x__first) o7))

;; "to_rep'result'unused"
(define-fun to_repqtresultqtunused5 () Int
  o7)

;; "map__content'result'unused"
(define-fun map__contentqtresultqtunused3 () map2
  x2)

;; "temp___2794"
(define-fun temp___2794 () us_t1
  (of_array x2 o7 o6))

;; "of_array'result'unused"
(define-fun of_arrayqtresultqtunused2 () us_t1
  temp___2794)

;; "o"
(define-fun o8 () Int
  (first m))

;; "first'result'unused"
(define-fun firstqtresultqtunused () Int
  o8)

;; "o"
(define-fun o9 () map1
  (to_array m))

;; "to_array'result'unused"
(define-fun to_arrayqtresultqtunused2 () map1
  o9)

;; "temp___2784"
(define-fun temp___2784 () map1
  (slide o9 o8 64))

;; "slide'result'unused"
(define-fun slideqtresultqtunused () map1
  temp___2784)

;; "Assert"
(assert
  (ite (<= (first m) (last m))
    (and
      (<= 64 (to_rep x__last))
      (= (- (last m) (first m)) (- (to_rep x__last) 64)))
    (< (to_rep x__last) 64)))

(declare-const o10 Int)

;; "Ensures"
(assert (= (to_rep x__last) o10))

;; "to_rep'result'unused"
(define-fun to_repqtresultqtunused6 () Int
  o10)

;; "o"
(define-fun o11 () map2
  (convert temp___2784))

;; "convert'result'unused"
(define-fun convertqtresultqtunused2 () map2
  o11)

;; "temp___2786"
(define-fun temp___2786 () us_t1
  (of_array o11 64 o10))

;; "of_array'result'unused"
(define-fun of_arrayqtresultqtunused3 () us_t1
  temp___2786)

(declare-const o12 Int)

;; "Ensures"
(assert (= (to_rep x__last) o12))

;; "to_rep'result'unused"
(define-fun to_repqtresultqtunused7 () Int
  o12)

(declare-const o13 Int)

;; "Ensures"
(assert (= (to_rep x__first) o13))

;; "to_rep'result'unused"
(define-fun to_repqtresultqtunused8 () Int
  o13)

;; "map__content'result'unused"
(define-fun map__contentqtresultqtunused4 () map2
  x2)

;; "of_array'result'unused"
(define-fun of_arrayqtresultqtunused4 () us_t1
  (of_array x2 o13 o12))

(declare-const temp___2792 Int)

;; "Ensures"
(assert (= (to_rep x__last) temp___2792))

;; "to_rep'result'unused"
(define-fun to_repqtresultqtunused9 () Int
  temp___2792)

(declare-const o14 Int)

;; "Ensures"
(assert (= (to_rep x__last) o14))

;; "to_rep'result'unused"
(define-fun to_repqtresultqtunused10 () Int
  o14)

(declare-const o15 Int)

;; "Ensures"
(assert (= (to_rep x__first) o15))

;; "to_rep'result'unused"
(define-fun to_repqtresultqtunused11 () Int
  o15)

;; "map__content'result'unused"
(define-fun map__contentqtresultqtunused5 () map2
  x2)

;; "temp___2787"
(define-fun temp___2787 () us_t1
  (of_array x2 o15 o14))

;; "of_array'result'unused"
(define-fun of_arrayqtresultqtunused5 () us_t1
  temp___2787)

;; "Assert"
(assert
  (=>
    (<= 64 temp___2792)
    (and
      (and (<= o15 64) (<= 64 o14))
      (and (<= o15 temp___2792) (<= temp___2792 o14)))))

;; "o"
(define-fun o16 () map2
  x2)

;; "to_array'result'unused"
(define-fun to_arrayqtresultqtunused3 () map2
  o16)

;; "o"
(define-fun o17 () map2
  (slice1 o16 64 temp___2792))

;; "slice'result'unused"
(define-fun sliceqtresultqtunused1 () map2
  o17)

;; "temp___2793"
(define-fun temp___2793 () us_t1
  (of_array o17 64 temp___2792))

;; "of_array'result'unused"
(define-fun of_arrayqtresultqtunused6 () us_t1
  temp___2793)

;; "Assert"
(assert
  (ite (<= 64 o10)
    (and (<= 64 temp___2792) (= (- o10 64) (- temp___2792 64)))
    (< temp___2792 64)))

(declare-const o18 Int)

;; "Ensures"
(assert (= (to_rep x__last) o18))

(declare-const to_repqtresultqtunused12 Int)

;; "H"
(assert (= to_repqtresultqtunused12 o18))

(declare-const o19 Int)

;; "Ensures"
(assert (= (to_rep x__first) o19))

(declare-const to_repqtresultqtunused13 Int)

;; "H"
(assert (= to_repqtresultqtunused13 o19))

(declare-const map__contentqtresultqtunused6 map2)

;; "H"
(assert (= map__contentqtresultqtunused6 x2))

(declare-const of_arrayqtresultqtunused7 us_t1)

;; "H"
(assert (= of_arrayqtresultqtunused7 (of_array x2 o19 o18)))

(declare-const temp___2802 Int)

;; "Ensures"
(assert (= (to_rep x__last) temp___2802))

(declare-const to_repqtresultqtunused14 Int)

;; "H"
(assert (= to_repqtresultqtunused14 temp___2802))

(declare-const infix_lseqqtresultqtunused2 Bool)

;; "H"
(assert (= infix_lseqqtresultqtunused2 (ite (<= 64 temp___2802) true false)))

(declare-const usf2 us_t1)

;; "H"
(assert true)

;; "H"
(assert (= o7 (first1 usf2)))

;; "H"
(assert (= o6 (last1 usf2)))

;; "H"
(assert
  (forall ((temp___2797 Int))
    (ite (and (<= 64 temp___2797) (<= temp___2797 (to_rep x__last)))
      (= (get1 (to_array1 usf2) temp___2797) (get1 o11 temp___2797))
      (= (get1 (to_array1 usf2) temp___2797) (get1 x2 temp___2797)))))

;; "any'result'unused"
(define-fun anyqtresultqtunused2 () us_t1
  usf2)

;; "o"
(define-fun o20 () map2
  (to_array1 usf2))

;; "to_array'result'unused"
(define-fun to_arrayqtresultqtunused4 () map2
  o20)

(declare-const x3 map2)

;; "x'unused"
(define-fun xqtunused3 () map__ref1
  (map__refqtmk1 x3))

;; "H"
(assert (= x3 o20))

(declare-const o21 Int)

;; "Ensures"
(assert (= (to_rep x__last) o21))

;; "to_rep'result'unused"
(define-fun to_repqtresultqtunused15 () Int
  o21)

(declare-const o22 Int)

;; "Ensures"
(assert (= (to_rep x__first) o22))

;; "to_rep'result'unused"
(define-fun to_repqtresultqtunused16 () Int
  o22)

;; "map__content'result'unused"
(define-fun map__contentqtresultqtunused7 () map2
  x3)

;; "temp___2820"
(define-fun temp___2820 () us_t1
  (of_array x3 o22 o21))

;; "of_array'result'unused"
(define-fun of_arrayqtresultqtunused8 () us_t1
  temp___2820)

;; "_f"
(define-fun usf3 () Bool
  (ite (us_is_initialized temp___2820) true false))

;; "any'result'unused"
(define-fun anyqtresultqtunused3 () Bool
  usf3)

;; "H"
(assert (<= 32 63))

;; Goal "def'vc"
;; File "sparknacl-sign.adb", line 905, characters 0-0
(assert
  (not (<= 0 63)))

(check-sat)
